c description: Tseitin formula on , with odd charge
c generator: CNFgen (0.9.0)
c copyright: (C) 2012-2020 Massimo Lauria <massimo.lauria@uniroma1.it>
c url: https://massimolauria.net/cnfgen
c
p cnf 30 424
1 2 3 4 5 6 7 8 0
1 2 3 4 5 6 -7 -8 0
1 2 3 4 5 -6 7 -8 0
1 2 3 4 5 -6 -7 8 0
1 2 3 4 -5 6 7 -8 0
1 2 3 4 -5 6 -7 8 0
1 2 3 4 -5 -6 7 8 0
1 2 3 4 -5 -6 -7 -8 0
1 2 3 -4 5 6 7 -8 0
1 2 3 -4 5 6 -7 8 0
1 2 3 -4 5 -6 7 8 0
1 2 3 -4 5 -6 -7 -8 0
1 2 3 -4 -5 6 7 8 0
1 2 3 -4 -5 6 -7 -8 0
1 2 3 -4 -5 -6 7 -8 0
1 2 3 -4 -5 -6 -7 8 0
1 2 -3 4 5 6 7 -8 0
1 2 -3 4 5 6 -7 8 0
1 2 -3 4 5 -6 7 8 0
1 2 -3 4 5 -6 -7 -8 0
1 2 -3 4 -5 6 7 8 0
1 2 -3 4 -5 6 -7 -8 0
1 2 -3 4 -5 -6 7 -8 0
1 2 -3 4 -5 -6 -7 8 0
1 2 -3 -4 5 6 7 8 0
1 2 -3 -4 5 6 -7 -8 0
1 2 -3 -4 5 -6 7 -8 0
1 2 -3 -4 5 -6 -7 8 0
1 2 -3 -4 -5 6 7 -8 0
1 2 -3 -4 -5 6 -7 8 0
1 2 -3 -4 -5 -6 7 8 0
1 2 -3 -4 -5 -6 -7 -8 0
1 -2 3 4 5 6 7 -8 0
1 -2 3 4 5 6 -7 8 0
1 -2 3 4 5 -6 7 8 0
1 -2 3 4 5 -6 -7 -8 0
1 -2 3 4 -5 6 7 8 0
1 -2 3 4 -5 6 -7 -8 0
1 -2 3 4 -5 -6 7 -8 0
1 -2 3 4 -5 -6 -7 8 0
1 -2 3 -4 5 6 7 8 0
1 -2 3 -4 5 6 -7 -8 0
1 -2 3 -4 5 -6 7 -8 0
1 -2 3 -4 5 -6 -7 8 0
1 -2 3 -4 -5 6 7 -8 0
1 -2 3 -4 -5 6 -7 8 0
1 -2 3 -4 -5 -6 7 8 0
1 -2 3 -4 -5 -6 -7 -8 0
1 -2 -3 4 5 6 7 8 0
1 -2 -3 4 5 6 -7 -8 0
1 -2 -3 4 5 -6 7 -8 0
1 -2 -3 4 5 -6 -7 8 0
1 -2 -3 4 -5 6 7 -8 0
1 -2 -3 4 -5 6 -7 8 0
1 -2 -3 4 -5 -6 7 8 0
1 -2 -3 4 -5 -6 -7 -8 0
1 -2 -3 -4 5 6 7 -8 0
1 -2 -3 -4 5 6 -7 8 0
1 -2 -3 -4 5 -6 7 8 0
1 -2 -3 -4 5 -6 -7 -8 0
1 -2 -3 -4 -5 6 7 8 0
1 -2 -3 -4 -5 6 -7 -8 0
1 -2 -3 -4 -5 -6 7 -8 0
1 -2 -3 -4 -5 -6 -7 8 0
-1 2 3 4 5 6 7 -8 0
-1 2 3 4 5 6 -7 8 0
-1 2 3 4 5 -6 7 8 0
-1 2 3 4 5 -6 -7 -8 0
-1 2 3 4 -5 6 7 8 0
-1 2 3 4 -5 6 -7 -8 0
-1 2 3 4 -5 -6 7 -8 0
-1 2 3 4 -5 -6 -7 8 0
-1 2 3 -4 5 6 7 8 0
-1 2 3 -4 5 6 -7 -8 0
-1 2 3 -4 5 -6 7 -8 0
-1 2 3 -4 5 -6 -7 8 0
-1 2 3 -4 -5 6 7 -8 0
-1 2 3 -4 -5 6 -7 8 0
-1 2 3 -4 -5 -6 7 8 0
-1 2 3 -4 -5 -6 -7 -8 0
-1 2 -3 4 5 6 7 8 0
-1 2 -3 4 5 6 -7 -8 0
-1 2 -3 4 5 -6 7 -8 0
-1 2 -3 4 5 -6 -7 8 0
-1 2 -3 4 -5 6 7 -8 0
-1 2 -3 4 -5 6 -7 8 0
-1 2 -3 4 -5 -6 7 8 0
-1 2 -3 4 -5 -6 -7 -8 0
-1 2 -3 -4 5 6 7 -8 0
-1 2 -3 -4 5 6 -7 8 0
-1 2 -3 -4 5 -6 7 8 0
-1 2 -3 -4 5 -6 -7 -8 0
-1 2 -3 -4 -5 6 7 8 0
-1 2 -3 -4 -5 6 -7 -8 0
-1 2 -3 -4 -5 -6 7 -8 0
-1 2 -3 -4 -5 -6 -7 8 0
-1 -2 3 4 5 6 7 8 0
-1 -2 3 4 5 6 -7 -8 0
-1 -2 3 4 5 -6 7 -8 0
-1 -2 3 4 5 -6 -7 8 0
-1 -2 3 4 -5 6 7 -8 0
-1 -2 3 4 -5 6 -7 8 0
-1 -2 3 4 -5 -6 7 8 0
-1 -2 3 4 -5 -6 -7 -8 0
-1 -2 3 -4 5 6 7 -8 0
-1 -2 3 -4 5 6 -7 8 0
-1 -2 3 -4 5 -6 7 8 0
-1 -2 3 -4 5 -6 -7 -8 0
-1 -2 3 -4 -5 6 7 8 0
-1 -2 3 -4 -5 6 -7 -8 0
-1 -2 3 -4 -5 -6 7 -8 0
-1 -2 3 -4 -5 -6 -7 8 0
-1 -2 -3 4 5 6 7 -8 0
-1 -2 -3 4 5 6 -7 8 0
-1 -2 -3 4 5 -6 7 8 0
-1 -2 -3 4 5 -6 -7 -8 0
-1 -2 -3 4 -5 6 7 8 0
-1 -2 -3 4 -5 6 -7 -8 0
-1 -2 -3 4 -5 -6 7 -8 0
-1 -2 -3 4 -5 -6 -7 8 0
-1 -2 -3 -4 5 6 7 8 0
-1 -2 -3 -4 5 6 -7 -8 0
-1 -2 -3 -4 5 -6 7 -8 0
-1 -2 -3 -4 5 -6 -7 8 0
-1 -2 -3 -4 -5 6 7 -8 0
-1 -2 -3 -4 -5 6 -7 8 0
-1 -2 -3 -4 -5 -6 7 8 0
-1 -2 -3 -4 -5 -6 -7 -8 0
9 10 11 12 13 -14 0
9 10 11 12 -13 14 0
9 10 11 -12 13 14 0
9 10 11 -12 -13 -14 0
9 10 -11 12 13 14 0
9 10 -11 12 -13 -14 0
9 10 -11 -12 13 -14 0
9 10 -11 -12 -13 14 0
9 -10 11 12 13 14 0
9 -10 11 12 -13 -14 0
9 -10 11 -12 13 -14 0
9 -10 11 -12 -13 14 0
9 -10 -11 12 13 -14 0
9 -10 -11 12 -13 14 0
9 -10 -11 -12 13 14 0
9 -10 -11 -12 -13 -14 0
-9 10 11 12 13 14 0
-9 10 11 12 -13 -14 0
-9 10 11 -12 13 -14 0
-9 10 11 -12 -13 14 0
-9 10 -11 12 13 -14 0
-9 10 -11 12 -13 14 0
-9 10 -11 -12 13 14 0
-9 10 -11 -12 -13 -14 0
-9 -10 11 12 13 -14 0
-9 -10 11 12 -13 14 0
-9 -10 11 -12 13 14 0
-9 -10 11 -12 -13 -14 0
-9 -10 -11 12 13 14 0
-9 -10 -11 12 -13 -14 0
-9 -10 -11 -12 13 -14 0
-9 -10 -11 -12 -13 14 0
1 9 15 16 -17 0
1 9 15 -16 17 0
1 9 -15 16 17 0
1 9 -15 -16 -17 0
1 -9 15 16 17 0
1 -9 15 -16 -17 0
1 -9 -15 16 -17 0
1 -9 -15 -16 17 0
-1 9 15 16 17 0
-1 9 15 -16 -17 0
-1 9 -15 16 -17 0
-1 9 -15 -16 17 0
-1 -9 15 16 -17 0
-1 -9 15 -16 17 0
-1 -9 -15 16 17 0
-1 -9 -15 -16 -17 0
2 15 18 19 -20 0
2 15 18 -19 20 0
2 15 -18 19 20 0
2 15 -18 -19 -20 0
2 -15 18 19 20 0
2 -15 18 -19 -20 0
2 -15 -18 19 -20 0
2 -15 -18 -19 20 0
-2 15 18 19 20 0
-2 15 18 -19 -20 0
-2 15 -18 19 -20 0
-2 15 -18 -19 20 0
-2 -15 18 19 -20 0
-2 -15 18 -19 20 0
-2 -15 -18 19 20 0
-2 -15 -18 -19 -20 0
3 10 16 18 21 22 -23 0
3 10 16 18 21 -22 23 0
3 10 16 18 -21 22 23 0
3 10 16 18 -21 -22 -23 0
3 10 16 -18 21 22 23 0
3 10 16 -18 21 -22 -23 0
3 10 16 -18 -21 22 -23 0
3 10 16 -18 -21 -22 23 0
3 10 -16 18 21 22 23 0
3 10 -16 18 21 -22 -23 0
3 10 -16 18 -21 22 -23 0
3 10 -16 18 -21 -22 23 0
3 10 -16 -18 21 22 -23 0
3 10 -16 -18 21 -22 23 0
3 10 -16 -18 -21 22 23 0
3 10 -16 -18 -21 -22 -23 0
3 -10 16 18 21 22 23 0
3 -10 16 18 21 -22 -23 0
3 -10 16 18 -21 22 -23 0
3 -10 16 18 -21 -22 23 0
3 -10 16 -18 21 22 -23 0
3 -10 16 -18 21 -22 23 0
3 -10 16 -18 -21 22 23 0
3 -10 16 -18 -21 -22 -23 0
3 -10 -16 18 21 22 -23 0
3 -10 -16 18 21 -22 23 0
3 -10 -16 18 -21 22 23 0
3 -10 -16 18 -21 -22 -23 0
3 -10 -16 -18 21 22 23 0
3 -10 -16 -18 21 -22 -23 0
3 -10 -16 -18 -21 22 -23 0
3 -10 -16 -18 -21 -22 23 0
-3 10 16 18 21 22 23 0
-3 10 16 18 21 -22 -23 0
-3 10 16 18 -21 22 -23 0
-3 10 16 18 -21 -22 23 0
-3 10 16 -18 21 22 -23 0
-3 10 16 -18 21 -22 23 0
-3 10 16 -18 -21 22 23 0
-3 10 16 -18 -21 -22 -23 0
-3 10 -16 18 21 22 -23 0
-3 10 -16 18 21 -22 23 0
-3 10 -16 18 -21 22 23 0
-3 10 -16 18 -21 -22 -23 0
-3 10 -16 -18 21 22 23 0
-3 10 -16 -18 21 -22 -23 0
-3 10 -16 -18 -21 22 -23 0
-3 10 -16 -18 -21 -22 23 0
-3 -10 16 18 21 22 -23 0
-3 -10 16 18 21 -22 23 0
-3 -10 16 18 -21 22 23 0
-3 -10 16 18 -21 -22 -23 0
-3 -10 16 -18 21 22 23 0
-3 -10 16 -18 21 -22 -23 0
-3 -10 16 -18 -21 22 -23 0
-3 -10 16 -18 -21 -22 23 0
-3 -10 -16 18 21 22 23 0
-3 -10 -16 18 21 -22 -23 0
-3 -10 -16 18 -21 22 -23 0
-3 -10 -16 18 -21 -22 23 0
-3 -10 -16 -18 21 22 -23 0
-3 -10 -16 -18 21 -22 23 0
-3 -10 -16 -18 -21 22 23 0
-3 -10 -16 -18 -21 -22 -23 0
4 11 24 -25 0
4 11 -24 25 0
4 -11 24 25 0
4 -11 -24 -25 0
-4 11 24 25 0
-4 11 -24 -25 0
-4 -11 24 -25 0
-4 -11 -24 25 0
5 12 19 21 26 -27 0
5 12 19 21 -26 27 0
5 12 19 -21 26 27 0
5 12 19 -21 -26 -27 0
5 12 -19 21 26 27 0
5 12 -19 21 -26 -27 0
5 12 -19 -21 26 -27 0
5 12 -19 -21 -26 27 0
5 -12 19 21 26 27 0
5 -12 19 21 -26 -27 0
5 -12 19 -21 26 -27 0
5 -12 19 -21 -26 27 0
5 -12 -19 21 26 -27 0
5 -12 -19 21 -26 27 0
5 -12 -19 -21 26 27 0
5 -12 -19 -21 -26 -27 0
-5 12 19 21 26 27 0
-5 12 19 21 -26 -27 0
-5 12 19 -21 26 -27 0
-5 12 19 -21 -26 27 0
-5 12 -19 21 26 -27 0
-5 12 -19 21 -26 27 0
-5 12 -19 -21 26 27 0
-5 12 -19 -21 -26 -27 0
-5 -12 19 21 26 -27 0
-5 -12 19 21 -26 27 0
-5 -12 19 -21 26 27 0
-5 -12 19 -21 -26 -27 0
-5 -12 -19 21 26 27 0
-5 -12 -19 21 -26 -27 0
-5 -12 -19 -21 26 -27 0
-5 -12 -19 -21 -26 27 0
6 17 20 22 26 28 -29 0
6 17 20 22 26 -28 29 0
6 17 20 22 -26 28 29 0
6 17 20 22 -26 -28 -29 0
6 17 20 -22 26 28 29 0
6 17 20 -22 26 -28 -29 0
6 17 20 -22 -26 28 -29 0
6 17 20 -22 -26 -28 29 0
6 17 -20 22 26 28 29 0
6 17 -20 22 26 -28 -29 0
6 17 -20 22 -26 28 -29 0
6 17 -20 22 -26 -28 29 0
6 17 -20 -22 26 28 -29 0
6 17 -20 -22 26 -28 29 0
6 17 -20 -22 -26 28 29 0
6 17 -20 -22 -26 -28 -29 0
6 -17 20 22 26 28 29 0
6 -17 20 22 26 -28 -29 0
6 -17 20 22 -26 28 -29 0
6 -17 20 22 -26 -28 29 0
6 -17 20 -22 26 28 -29 0
6 -17 20 -22 26 -28 29 0
6 -17 20 -22 -26 28 29 0
6 -17 20 -22 -26 -28 -29 0
6 -17 -20 22 26 28 -29 0
6 -17 -20 22 26 -28 29 0
6 -17 -20 22 -26 28 29 0
6 -17 -20 22 -26 -28 -29 0
6 -17 -20 -22 26 28 29 0
6 -17 -20 -22 26 -28 -29 0
6 -17 -20 -22 -26 28 -29 0
6 -17 -20 -22 -26 -28 29 0
-6 17 20 22 26 28 29 0
-6 17 20 22 26 -28 -29 0
-6 17 20 22 -26 28 -29 0
-6 17 20 22 -26 -28 29 0
-6 17 20 -22 26 28 -29 0
-6 17 20 -22 26 -28 29 0
-6 17 20 -22 -26 28 29 0
-6 17 20 -22 -26 -28 -29 0
-6 17 -20 22 26 28 -29 0
-6 17 -20 22 26 -28 29 0
-6 17 -20 22 -26 28 29 0
-6 17 -20 22 -26 -28 -29 0
-6 17 -20 -22 26 28 29 0
-6 17 -20 -22 26 -28 -29 0
-6 17 -20 -22 -26 28 -29 0
-6 17 -20 -22 -26 -28 29 0
-6 -17 20 22 26 28 -29 0
-6 -17 20 22 26 -28 29 0
-6 -17 20 22 -26 28 29 0
-6 -17 20 22 -26 -28 -29 0
-6 -17 20 -22 26 28 29 0
-6 -17 20 -22 26 -28 -29 0
-6 -17 20 -22 -26 28 -29 0
-6 -17 20 -22 -26 -28 29 0
-6 -17 -20 22 26 28 29 0
-6 -17 -20 22 26 -28 -29 0
-6 -17 -20 22 -26 28 -29 0
-6 -17 -20 22 -26 -28 29 0
-6 -17 -20 -22 26 28 -29 0
-6 -17 -20 -22 26 -28 29 0
-6 -17 -20 -22 -26 28 29 0
-6 -17 -20 -22 -26 -28 -29 0
7 13 24 27 28 -30 0
7 13 24 27 -28 30 0
7 13 24 -27 28 30 0
7 13 24 -27 -28 -30 0
7 13 -24 27 28 30 0
7 13 -24 27 -28 -30 0
7 13 -24 -27 28 -30 0
7 13 -24 -27 -28 30 0
7 -13 24 27 28 30 0
7 -13 24 27 -28 -30 0
7 -13 24 -27 28 -30 0
7 -13 24 -27 -28 30 0
7 -13 -24 27 28 -30 0
7 -13 -24 27 -28 30 0
7 -13 -24 -27 28 30 0
7 -13 -24 -27 -28 -30 0
-7 13 24 27 28 30 0
-7 13 24 27 -28 -30 0
-7 13 24 -27 28 -30 0
-7 13 24 -27 -28 30 0
-7 13 -24 27 28 -30 0
-7 13 -24 27 -28 30 0
-7 13 -24 -27 28 30 0
-7 13 -24 -27 -28 -30 0
-7 -13 24 27 28 -30 0
-7 -13 24 27 -28 30 0
-7 -13 24 -27 28 30 0
-7 -13 24 -27 -28 -30 0
-7 -13 -24 27 28 30 0
-7 -13 -24 27 -28 -30 0
-7 -13 -24 -27 28 -30 0
-7 -13 -24 -27 -28 30 0
8 14 23 25 29 -30 0
8 14 23 25 -29 30 0
8 14 23 -25 29 30 0
8 14 23 -25 -29 -30 0
8 14 -23 25 29 30 0
8 14 -23 25 -29 -30 0
8 14 -23 -25 29 -30 0
8 14 -23 -25 -29 30 0
8 -14 23 25 29 30 0
8 -14 23 25 -29 -30 0
8 -14 23 -25 29 -30 0
8 -14 23 -25 -29 30 0
8 -14 -23 25 29 -30 0
8 -14 -23 25 -29 30 0
8 -14 -23 -25 29 30 0
8 -14 -23 -25 -29 -30 0
-8 14 23 25 29 30 0
-8 14 23 25 -29 -30 0
-8 14 23 -25 29 -30 0
-8 14 23 -25 -29 30 0
-8 14 -23 25 29 -30 0
-8 14 -23 25 -29 30 0
-8 14 -23 -25 29 30 0
-8 14 -23 -25 -29 -30 0
-8 -14 23 25 29 -30 0
-8 -14 23 25 -29 30 0
-8 -14 23 -25 29 30 0
-8 -14 23 -25 -29 -30 0
-8 -14 -23 25 29 30 0
-8 -14 -23 25 -29 -30 0
-8 -14 -23 -25 29 -30 0
-8 -14 -23 -25 -29 30 0